DIMENSION: 12
EDGE_WEIGHT_TYPE: EXPLICIT
EDGE_WEIGHT_FORMAT: FULL_MATRIX
EDGE_WEIGHT_SECTION:
32767 90 1 95 89 32767 64 32767 32767 75 98 6 
90 32767 46 32767 31 48 26 32767 69 32767 38 32767 
1 46 32767 32767 97 98 97 21 93 65 11 43 
95 32767 32767 32767 87 86 65 83 32 32767 21 21 
89 31 97 87 32767 32767 3 41 19 66 19 57 
32767 48 98 86 32767 32767 6 76 24 30 24 32767 
64 26 97 65 3 6 32767 32767 29 27 13 83 
32767 32767 21 83 41 76 32767 32767 34 18 37 67 
32767 69 93 32 19 24 29 34 32767 13 32767 70 
75 32767 65 32767 66 30 27 18 13 32767 63 49 
98 38 11 21 19 24 13 37 32767 63 32767 94 
6 32767 43 21 57 32767 83 67 70 49 94 32767 
EOF